/* Objective Function */

min: 12 y1 + 14 y2 + 16 y3 + 18 y4 + 2 a1 + 2 a2 + 2 a3 + 2 a4 + 10 x1 + 12 x2 + 14 x3 + 16 x4;

/* Constraints */

0 <= y1 <= 200;
0 <= y2 <= 200;
0 <= y3 <= 200;
0 <= y4 <= 200;

y1 + x1 - a1 = 150;
a1 + y2 + x2 - a2 = 200;
a2 + y3 + x3 - a3 = 250;
a3 + y4 + x4 - a4 = 150;

y1 - 200 b1 >= 0;
y2 - 200 b2 >= 0;
y3 - 200 b3 >= 0;
y4 - 200 b4 >= 0;

x1 - 50000 b1 <= 0;
x2 - 50000 b2 <= 0;
x3 - 50000 b3 <= 0;
x4 - 50000 b4 <= 0;

int b1, b2, b3, b4;